
  32    4
  10   10   10   10

   0   0   0   0   0  12 2 21 22 23 24 25 26 27 28 29 30 31 
   8   1   1   1   0   1 3 
   4   2   5   0   1   1 4 
   4   2   5   0   3   5 20 19 18 17 5 
   8   6   0   3   5   3 16 15 6 
   1   4   1   3   0   1 7 
   1   2   5   3   0   2 14 8 
   1   3   1   0   7   1 9 
   2   6   7   4   0   1 10 
   2   0   4   6   3   1 11 
   6   0   4   3   2   1 12 
   5   0   6   5   7   1 13 
   5   6   0   3   2   1 32
   3   3   0   5   5   1 32
   8   0   8   4   5   1 32
   4   0   3   6   4   1 32
   3   1   0   3   7   1 32
   7   0   7   3   3   1 32
   5   5   0   4   3   1 32
  10   3   6   1   0   1 32
   5   2   0   6   3   1 32
   2   0   4   4   2   1 32
   3   5   2   6   0   1 32
   5   8   2   3   0   1 32
   9   9   4   0   5   1 32
  10   4   0   6   6   1 32
  10   4   5   6   0   1 32
   1   4   0   4   4   1 32
  10   4   3   0   4   1 32
   8   4   2   3   0   1 32
   1   0   3   5   3   1 32
   0   0   0   0   0   0 
